1
2
3
4
5
6
28
29
30
27
26
35
36
25
24
23
22
37
38
39
40
21
18
17
41
42
16
15
20
19
8
7
9
10
11
12
13
14
43
44
45
71
72
70
69
68
67
66
65
64
63
62
61
60
59
48
47
46
58
57
56
55
54
53
52
51
50
49
83
84
82
81
80
79
85
86
110
109
108
107
106
105
104
88
87
103
102
101
100
99
98
97
96
95
94
93
90
89
78
77
76
75
74
73
91
92
116
117
118
119
120
121
122
123
124
125
126
127
128
129
130
134
133
132
131
115
135
136
137
138
139
140
141
142
143
144
111
112
113
114
31
32
33
34
1
